GLPSOL--GLPK LP/MIP Solver 5.0
Parameter(s) specified in the command line:
 --lp ../modeles/5_189.lp --log 5_189.log
Reading problem data from '../modeles/5_189.lp'...
966 rows, 1900 columns, 6640 non-zeros
945 integer variables, all of which are binary
2877 lines were read
GLPK Integer Optimizer 5.0
966 rows, 1900 columns, 6640 non-zeros
945 integer variables, all of which are binary
Preprocessing...
930 constraint coefficient(s) were reduced
966 rows, 1895 columns, 6635 non-zeros
945 integer variables, all of which are binary
Scaling...
 A: min|aij| =  1.120e-04  max|aij| =  4.000e+00  ratio =  3.572e+04
GM: min|aij| =  7.274e-02  max|aij| =  1.375e+01  ratio =  1.890e+02
EQ: min|aij| =  5.291e-03  max|aij| =  1.000e+00  ratio =  1.890e+02
2N: min|aij| =  3.583e-03  max|aij| =  1.747e+00  ratio =  4.875e+02
Constructing initial basis...
Size of triangular part is 966
Solving LP relaxation...
GLPK Simplex Optimizer 5.0
966 rows, 1895 columns, 6635 non-zeros
      0: obj =   1.000000000e+01 inf =   2.450e+01 (11)
     64: obj =   4.997340426e-01 inf =   0.000e+00 (0)
*   247: obj =  -2.235481230e+00 inf =   3.801e-16 (0)
OPTIMAL LP SOLUTION FOUND
Integer optimization begins...
Long-step dual simplex will be used
+   247: mip =     not found yet >=              -inf        (1; 0)
+   354: >>>>>  -2.235481230e+00 >=  -2.235481230e+00 < 0.1% (107; 0)
+   354: mip =  -2.235481230e+00 >=     tree is empty   0.0% (0; 213)
INTEGER OPTIMAL SOLUTION FOUND
Time used:   0.2 secs
Memory used: 2.8 Mb (2938049 bytes)
